40
1 0 5
2 0 3
2 1 1
3 0 3
3 1 7
3 2 2
4 0 6
4 1 5
4 2 1
4 3 3
5 0 4
5 1 1
5 2 1
5 3 3
5 4 4
6 0 7
6 1 6
6 2 4
6 3 1
6 4 3
6 5 7
7 0 5
7 1 1
7 2 3
7 3 4
7 4 2
7 5 5
7 6 7
8 0 6
8 1 5
8 2 4
8 3 2
8 4 3
8 5 5
8 6 6
8 7 5
9 0 1
9 1 4
9 2 6
9 3 5
9 4 7
9 5 1
9 6 4
9 7 7
9 8 7
10 0 7
10 1 1
10 2 3
10 3 3
10 4 1
10 5 4
10 6 6
10 7 7
10 8 1
10 9 4
11 0 5
11 1 3
11 2 1
11 3 5
11 4 6
11 5 2
11 6 7
11 7 7
11 8 3
11 9 5
11 10 7
12 0 3
12 1 7
12 2 1
12 3 5
12 4 1
12 5 7
12 6 1
12 7 7
12 8 6
12 9 3
12 10 3
12 11 1
13 0 7
13 1 3
13 2 1
13 3 2
13 4 4
13 5 4
13 6 6
13 7 3
13 8 2
13 9 4
13 10 2
13 11 6
13 12 5
14 0 2
14 1 3
14 2 6
14 3 4
14 4 4
14 5 7
14 6 7
14 7 1
14 8 1
14 9 5
14 10 3
14 11 2
14 12 1
14 13 7
15 0 2
15 1 4
15 2 3
15 3 5
15 4 3
15 5 7
15 6 1
15 7 2
15 8 4
15 9 2
15 10 7
15 11 4
15 12 1
15 13 1
15 14 6
16 0 5
16 1 3
16 2 7
16 3 6
16 4 7
16 5 3
16 6 6
16 7 6
16 8 7
16 9 3
16 10 2
16 11 3
16 12 4
16 13 2
16 14 7
16 15 3
17 0 4
17 1 4
17 2 2
17 3 2
17 4 5
17 5 7
17 6 6
17 7 7
17 8 5
17 9 1
17 10 7
17 11 6
17 12 5
17 13 3
17 14 3
17 15 7
17 16 6
18 0 5
18 1 7
18 2 7
18 3 5
18 4 3
18 5 2
18 6 5
18 7 5
18 8 4
18 9 6
18 10 1
18 11 4
18 12 2
18 13 7
18 14 3
18 15 4
18 16 3
18 17 3
19 0 3
19 1 1
19 2 4
19 3 2
19 4 7
19 5 4
19 6 7
19 7 4
19 8 7
19 9 4
19 10 2
19 11 5
19 12 3
19 13 1
19 14 1
19 15 6
19 16 6
19 17 5
19 18 5
20 0 4
20 1 6
20 2 7
20 3 1
20 4 6
20 5 6
20 6 3
20 7 5
20 8 1
20 9 5
20 10 6
20 11 3
20 12 5
20 13 2
20 14 7
20 15 5
20 16 2
20 17 6
20 18 2
20 19 7
21 0 2
21 1 2
21 2 1
21 3 1
21 4 3
21 5 7
21 6 2
21 7 1
21 8 2
21 9 7
21 10 4
21 11 3
21 12 4
21 13 3
21 14 5
21 15 6
21 16 4
21 17 2
21 18 4
21 19 5
21 20 3
22 0 6
22 1 3
22 2 4
22 3 6
22 4 7
22 5 1
22 6 1
22 7 1
22 8 3
22 9 4
22 10 1
22 11 3
22 12 7
22 13 1
22 14 4
22 15 1
22 16 2
22 17 1
22 18 7
22 19 4
22 20 6
22 21 6
23 0 6
23 1 4
23 2 4
23 3 3
23 4 3
23 5 4
23 6 5
23 7 5
23 8 6
23 9 5
23 10 1
23 11 1
23 12 4
23 13 6
23 14 3
23 15 4
23 16 5
23 17 5
23 18 4
23 19 5
23 20 6
23 21 5
23 22 5
24 0 4
24 1 3
24 2 7
24 3 4
24 4 1
24 5 2
24 6 2
24 7 5
24 8 5
24 9 7
24 10 2
24 11 7
24 12 7
24 13 3
24 14 7
24 15 6
24 16 2
24 17 6
24 18 1
24 19 7
24 20 6
24 21 4
24 22 6
24 23 5
25 0 2
25 1 4
25 2 3
25 3 7
25 4 7
25 5 5
25 6 4
25 7 4
25 8 4
25 9 2
25 10 7
25 11 4
25 12 4
25 13 6
25 14 6
25 15 1
25 16 4
25 17 3
25 18 4
25 19 7
25 20 2
25 21 4
25 22 2
25 23 2
25 24 4
26 0 4
26 1 5
26 2 7
26 3 4
26 4 2
26 5 5
26 6 3
26 7 1
26 8 2
26 9 5
26 10 2
26 11 7
26 12 1
26 13 1
26 14 6
26 15 6
26 16 4
26 17 6
26 18 5
26 19 2
26 20 2
26 21 1
26 22 5
26 23 5
26 24 4
26 25 7
27 0 4
27 1 7
27 2 3
27 3 1
27 4 5
27 5 5
27 6 6
27 7 4
27 8 3
27 9 7
27 10 1
27 11 1
27 12 6
27 13 3
27 14 2
27 15 7
27 16 7
27 17 6
27 18 6
27 19 2
27 20 1
27 21 2
27 22 1
27 23 1
27 24 2
27 25 7
27 26 1
28 0 1
28 1 3
28 2 1
28 3 4
28 4 1
28 5 1
28 6 2
28 7 4
28 8 6
28 9 2
28 10 7
28 11 1
28 12 4
28 13 3
28 14 2
28 15 1
28 16 6
28 17 5
28 18 6
28 19 3
28 20 3
28 21 1
28 22 4
28 23 6
28 24 7
28 25 2
28 26 7
28 27 3
29 0 1
29 1 5
29 2 2
29 3 4
29 4 6
29 5 7
29 6 7
29 7 2
29 8 5
29 9 6
29 10 7
29 11 6
29 12 1
29 13 6
29 14 7
29 15 3
29 16 3
29 17 3
29 18 7
29 19 3
29 20 5
29 21 7
29 22 3
29 23 7
29 24 7
29 25 5
29 26 6
29 27 1
29 28 4
30 0 5
30 1 3
30 2 7
30 3 6
30 4 2
30 5 7
30 6 1
30 7 5
30 8 6
30 9 2
30 10 1
30 11 7
30 12 3
30 13 6
30 14 3
30 15 6
30 16 5
30 17 6
30 18 1
30 19 4
30 20 2
30 21 2
30 22 3
30 23 6
30 24 2
30 25 3
30 26 1
30 27 7
30 28 3
30 29 2
31 0 5
31 1 2
31 2 6
31 3 2
31 4 2
31 5 2
31 6 7
31 7 1
31 8 5
31 9 1
31 10 1
31 11 6
31 12 3
31 13 6
31 14 1
31 15 6
31 16 7
31 17 1
31 18 3
31 19 1
31 20 5
31 21 3
31 22 2
31 23 3
31 24 2
31 25 7
31 26 6
31 27 2
31 28 1
31 29 7
31 30 5
32 0 5
32 1 7
32 2 3
32 3 3
32 4 3
32 5 5
32 6 5
32 7 1
32 8 2
32 9 3
32 10 3
32 11 1
32 12 1
32 13 1
32 14 5
32 15 6
32 16 1
32 17 6
32 18 5
32 19 2
32 20 1
32 21 5
32 22 1
32 23 2
32 24 2
32 25 7
32 26 3
32 27 6
32 28 3
32 29 6
32 30 4
32 31 3
33 0 3
33 1 7
33 2 4
33 3 6
33 4 1
33 5 3
33 6 3
33 7 4
33 8 4
33 9 6
33 10 2
33 11 7
33 12 1
33 13 4
33 14 4
33 15 6
33 16 7
33 17 2
33 18 4
33 19 4
33 20 2
33 21 6
33 22 5
33 23 1
33 24 5
33 25 3
33 26 7
33 27 2
33 28 2
33 29 6
33 30 4
33 31 5
33 32 6
34 0 2
34 1 2
34 2 7
34 3 1
34 4 6
34 5 5
34 6 7
34 7 5
34 8 7
34 9 6
34 10 6
34 11 7
34 12 3
34 13 7
34 14 3
34 15 4
34 16 3
34 17 5
34 18 2
34 19 6
34 20 6
34 21 6
34 22 2
34 23 6
34 24 1
34 25 7
34 26 4
34 27 5
34 28 2
34 29 1
34 30 7
34 31 3
34 32 3
34 33 6
35 0 5
35 1 3
35 2 1
35 3 6
35 4 2
35 5 3
35 6 5
35 7 2
35 8 5
35 9 1
35 10 1
35 11 3
35 12 5
35 13 5
35 14 5
35 15 7
35 16 7
35 17 2
35 18 2
35 19 1
35 20 4
35 21 1
35 22 5
35 23 1
35 24 2
35 25 2
35 26 7
35 27 3
35 28 3
35 29 7
35 30 5
35 31 1
35 32 6
35 33 2
35 34 1
36 0 2
36 1 7
36 2 6
36 3 6
36 4 1
36 5 3
36 6 5
36 7 2
36 8 2
36 9 5
36 10 5
36 11 6
36 12 7
36 13 1
36 14 5
36 15 1
36 16 5
36 17 2
36 18 2
36 19 2
36 20 7
36 21 3
36 22 7
36 23 3
36 24 4
36 25 1
36 26 5
36 27 6
36 28 6
36 29 1
36 30 6
36 31 6
36 32 1
36 33 2
36 34 5
36 35 1
37 0 1
37 1 6
37 2 3
37 3 2
37 4 1
37 5 2
37 6 3
37 7 5
37 8 6
37 9 1
37 10 3
37 11 3
37 12 6
37 13 4
37 14 6
37 15 6
37 16 1
37 17 6
37 18 6
37 19 4
37 20 1
37 21 5
37 22 2
37 23 3
37 24 3
37 25 1
37 26 7
37 27 7
37 28 7
37 29 5
37 30 4
37 31 3
37 32 2
37 33 5
37 34 1
37 35 5
37 36 5
38 0 7
38 1 4
38 2 1
38 3 2
38 4 3
38 5 5
38 6 6
38 7 2
38 8 5
38 9 3
38 10 5
38 11 6
38 12 7
38 13 3
38 14 2
38 15 6
38 16 7
38 17 2
38 18 6
38 19 6
38 20 2
38 21 4
38 22 1
38 23 2
38 24 3
38 25 2
38 26 1
38 27 5
38 28 3
38 29 5
38 30 6
38 31 4
38 32 5
38 33 1
38 34 5
38 35 2
38 36 6
38 37 3
39 0 3
39 1 2
39 2 3
39 3 5
39 4 6
39 5 7
39 6 3
39 7 1
39 8 6
39 9 6
39 10 5
39 11 2
39 12 7
39 13 4
39 14 7
39 15 7
39 16 6
39 17 1
39 18 5
39 19 5
39 20 1
39 21 5
39 22 4
39 23 7
39 24 6
39 25 2
39 26 2
39 27 5
39 28 5
39 29 2
39 30 4
39 31 4
39 32 1
39 33 5
39 34 3
39 35 3
39 36 1
39 37 6
39 38 3
